p cnf 1577 2787
1 -2 0
1 -3 0
2 3 -1 0
4 -1 0
1 -4 0
5 -6 0
5 -7 0
6 7 -5 0
3 -5 0
-3 5 0
8 -9 0
8 -10 0
9 10 -8 0
7 -8 0
-7 8 0
11 -12 0
11 -13 0
12 13 -11 0
10 -11 0
-10 11 0
14 -15 0
14 -16 0
15 16 -14 0
13 -14 0
-13 14 0
17 -18 0
17 -19 0
18 19 -17 0
16 -17 0
-16 17 0
20 -21 0
20 -22 0
21 22 -20 0
19 -20 0
-19 20 0
23 -24 0
23 -25 0
24 25 -23 0
22 -23 0
-22 23 0
26 -27 0
26 -28 0
27 28 -26 0
25 -26 0
-25 26 0
29 -30 0
29 -31 0
30 31 -29 0
28 -29 0
-28 29 0
32 -33 0
32 -34 0
33 34 -32 0
31 -32 0
-31 32 0
35 -36 0
35 -37 0
36 37 -35 0
34 -35 0
-34 35 0
38 -39 0
38 -40 0
39 40 -38 0
37 -38 0
-37 38 0
-21 41 0
-24 41 0
-27 41 0
-30 41 0
-33 41 0
-36 41 0
-39 41 0
41 -42 0
43 0
40 -41 0
-40 41 0
44 -45 0
44 -46 0
45 46 -44 0
47 -44 0
44 -47 0
48 -49 0
48 -50 0
49 50 -48 0
46 -48 0
-46 48 0
51 -52 0
51 -53 0
52 53 -51 0
50 -51 0
-50 51 0
54 -55 0
54 -56 0
55 56 -54 0
53 -54 0
-53 54 0
57 -58 0
57 -59 0
58 59 -57 0
56 -57 0
-56 57 0
60 -61 0
60 -62 0
61 62 -60 0
59 -60 0
-59 60 0
63 -64 0
63 -65 0
64 65 -63 0
62 -63 0
-62 63 0
66 -67 0
66 -68 0
67 68 -66 0
65 -66 0
-65 66 0
69 -70 0
69 -71 0
70 71 -69 0
68 -69 0
-68 69 0
-58 72 0
-61 72 0
-64 72 0
-67 72 0
-70 72 0
72 -73 0
74 0
71 -72 0
-71 72 0
75 -76 0
75 -77 0
76 77 -75 0
78 -75 0
75 -78 0
79 -80 0
79 -81 0
80 81 -79 0
77 -79 0
-77 79 0
82 -83 0
82 -84 0
83 84 -82 0
81 -82 0
-81 82 0
85 -86 0
85 -87 0
86 87 -85 0
84 -85 0
-84 85 0
88 -89 0
88 -90 0
89 90 -88 0
87 -88 0
-87 88 0
91 -92 0
91 -93 0
92 93 -91 0
90 -91 0
-90 91 0
94 -95 0
94 -96 0
95 96 -94 0
93 -94 0
-93 94 0
97 -98 0
97 -99 0
98 99 -97 0
96 -97 0
-96 97 0
100 -101 0
100 -102 0
101 102 -100 0
99 -100 0
-99 100 0
103 -104 0
103 -105 0
104 105 -103 0
102 -103 0
-102 103 0
106 -107 0
106 -108 0
107 108 -106 0
105 -106 0
-105 106 0
-89 109 0
-92 109 0
-95 109 0
-98 109 0
-101 109 0
-104 109 0
-107 109 0
109 -110 0
111 0
108 -109 0
-108 109 0
112 -113 0
112 -114 0
113 114 -112 0
115 -112 0
112 -115 0
116 -117 0
116 -118 0
117 118 -116 0
114 -116 0
-114 116 0
119 -120 0
119 -121 0
120 121 -119 0
118 -119 0
-118 119 0
122 -123 0
122 -124 0
123 124 -122 0
121 -122 0
-121 122 0
125 -126 0
125 -127 0
126 127 -125 0
124 -125 0
-124 125 0
128 -129 0
128 -130 0
129 130 -128 0
127 -128 0
-127 128 0
131 -132 0
131 -133 0
132 133 -131 0
130 -131 0
-130 131 0
134 -135 0
134 -136 0
135 136 -134 0
133 -134 0
-133 134 0
137 -138 0
137 -139 0
138 139 -137 0
136 -137 0
-136 137 0
140 -141 0
140 -142 0
141 142 -140 0
139 -140 0
-139 140 0
143 -144 0
143 -145 0
144 145 -143 0
142 -143 0
-142 143 0
146 -147 0
146 -148 0
147 148 -146 0
145 -146 0
-145 146 0
149 -150 0
149 -151 0
150 151 -149 0
148 -149 0
-148 149 0
-135 152 0
-138 152 0
-141 152 0
-144 152 0
-147 152 0
-150 152 0
152 -153 0
154 0
151 -152 0
-151 152 0
155 -156 0
155 -157 0
156 157 -155 0
158 -155 0
155 -158 0
159 -160 0
159 -161 0
160 161 -159 0
157 -159 0
-157 159 0
162 -163 0
162 -164 0
163 164 -162 0
161 -162 0
-161 162 0
165 -166 0
165 -167 0
166 167 -165 0
164 -165 0
-164 165 0
168 -169 0
168 -170 0
169 170 -168 0
167 -168 0
-167 168 0
171 -172 0
171 -173 0
172 173 -171 0
170 -171 0
-170 171 0
174 -175 0
174 -176 0
175 176 -174 0
173 -174 0
-173 174 0
177 -178 0
177 -179 0
178 179 -177 0
176 -177 0
-176 177 0
180 -181 0
180 -182 0
181 182 -180 0
179 -180 0
-179 180 0
183 -184 0
183 -185 0
184 185 -183 0
182 -183 0
-182 183 0
-169 186 0
-172 186 0
-175 186 0
-178 186 0
-181 186 0
-184 186 0
186 -187 0
188 0
185 -186 0
-185 186 0
189 -190 0
189 -191 0
190 191 -189 0
192 -189 0
189 -192 0
193 -194 0
193 -195 0
194 195 -193 0
191 -193 0
-191 193 0
196 -197 0
196 -198 0
197 198 -196 0
195 -196 0
-195 196 0
199 -200 0
199 -201 0
200 201 -199 0
198 -199 0
-198 199 0
202 -203 0
202 -204 0
203 204 -202 0
201 -202 0
-201 202 0
205 -206 0
205 -207 0
206 207 -205 0
204 -205 0
-204 205 0
208 -209 0
208 -210 0
209 210 -208 0
207 -208 0
-207 208 0
211 -212 0
211 -213 0
212 213 -211 0
210 -211 0
-210 211 0
214 -215 0
214 -216 0
215 216 -214 0
213 -214 0
-213 214 0
217 -218 0
217 -219 0
218 219 -217 0
216 -217 0
-216 217 0
-206 220 0
-209 220 0
-212 220 0
-215 220 0
-218 220 0
220 -221 0
222 0
219 -220 0
-219 220 0
223 -224 0
223 -225 0
224 225 -223 0
226 -223 0
223 -226 0
227 -228 0
227 -229 0
228 229 -227 0
225 -227 0
-225 227 0
230 -231 0
230 -232 0
231 232 -230 0
229 -230 0
-229 230 0
233 -234 0
233 -235 0
234 235 -233 0
232 -233 0
-232 233 0
236 -237 0
236 -238 0
237 238 -236 0
235 -236 0
-235 236 0
239 -240 0
239 -241 0
240 241 -239 0
238 -239 0
-238 239 0
242 -243 0
242 -244 0
243 244 -242 0
241 -242 0
-241 242 0
245 -246 0
245 -247 0
246 247 -245 0
244 -245 0
-244 245 0
248 -249 0
248 -250 0
249 250 -248 0
247 -248 0
-247 248 0
251 -252 0
251 -253 0
252 253 -251 0
250 -251 0
-250 251 0
254 -255 0
254 -256 0
255 256 -254 0
253 -254 0
-253 254 0
257 -258 0
257 -259 0
258 259 -257 0
256 -257 0
-256 257 0
260 -261 0
260 -262 0
261 262 -260 0
259 -260 0
-259 260 0
263 -264 0
263 -265 0
264 265 -263 0
262 -263 0
-262 263 0
-249 266 0
-252 266 0
-255 266 0
-258 266 0
-261 266 0
-264 266 0
266 -267 0
268 0
265 -266 0
-265 266 0
269 -270 0
269 -271 0
270 271 -269 0
272 -269 0
269 -272 0
273 -274 0
273 -275 0
274 275 -273 0
271 -273 0
-271 273 0
276 -277 0
276 -278 0
277 278 -276 0
275 -276 0
-275 276 0
-145 279 0
279 -280 0
145 280 -279 0
278 -279 0
-278 279 0
281 -282 0
281 -283 0
282 283 -281 0
284 -281 0
281 -284 0
285 -286 0
285 -287 0
286 287 -285 0
283 -285 0
-283 285 0
288 -289 0
288 -290 0
289 290 -288 0
287 -288 0
-287 288 0
291 -292 0
291 -293 0
292 293 -291 0
290 -291 0
-290 291 0
294 -295 0
294 -296 0
295 296 -294 0
293 -294 0
-293 294 0
297 -298 0
297 -299 0
298 299 -297 0
296 -297 0
-296 297 0
300 -301 0
300 -302 0
301 302 -300 0
299 -300 0
-299 300 0
303 -304 0
303 -305 0
304 305 -303 0
302 -303 0
-302 303 0
306 -307 0
306 -308 0
307 308 -306 0
305 -306 0
-305 306 0
309 -310 0
309 -311 0
310 311 -309 0
308 -309 0
-308 309 0
312 -313 0
312 -314 0
313 314 -312 0
311 -312 0
-311 312 0
315 -316 0
315 -317 0
316 317 -315 0
314 -315 0
-314 315 0
318 -319 0
318 -320 0
319 320 -318 0
317 -318 0
-317 318 0
-304 321 0
-307 321 0
-310 321 0
-313 321 0
-316 321 0
-319 321 0
321 -322 0
323 0
320 -321 0
-320 321 0
324 -325 0
324 -326 0
325 326 -324 0
327 -324 0
324 -327 0
328 -329 0
328 -330 0
329 330 -328 0
326 -328 0
-326 328 0
331 -332 0
331 -333 0
332 333 -331 0
330 -331 0
-330 331 0
334 -335 0
334 -336 0
335 336 -334 0
333 -334 0
-333 334 0
337 -338 0
337 -339 0
338 339 -337 0
336 -337 0
-336 337 0
340 -341 0
340 -342 0
341 342 -340 0
339 -340 0
-339 340 0
343 -344 0
343 -345 0
344 345 -343 0
342 -343 0
-342 343 0
346 -347 0
346 -348 0
347 348 -346 0
345 -346 0
-345 346 0
349 -350 0
349 -351 0
350 351 -349 0
348 -349 0
-348 349 0
352 -353 0
352 -354 0
353 354 -352 0
351 -352 0
-351 352 0
355 -356 0
355 -357 0
356 357 -355 0
354 -355 0
-354 355 0
-341 358 0
-344 358 0
-347 358 0
-350 358 0
-353 358 0
-356 358 0
358 -359 0
360 0
357 -358 0
-357 358 0
361 -362 0
361 -363 0
362 363 -361 0
364 -361 0
361 -364 0
365 -366 0
365 -367 0
366 367 -365 0
363 -365 0
-363 365 0
368 -369 0
368 -370 0
369 370 -368 0
367 -368 0
-367 368 0
371 -372 0
371 -373 0
372 373 -371 0
370 -371 0
-370 371 0
-50 374 0
374 -375 0
50 375 -374 0
373 -374 0
-373 374 0
376 -377 0
376 -378 0
377 378 -376 0
379 -376 0
376 -379 0
380 -381 0
380 -382 0
381 382 -380 0
378 -380 0
-378 380 0
383 -384 0
383 -385 0
384 385 -383 0
382 -383 0
-382 383 0
386 -387 0
386 -388 0
387 388 -386 0
385 -386 0
-385 386 0
389 -390 0
389 -391 0
390 391 -389 0
388 -389 0
-388 389 0
392 -393 0
392 -394 0
393 394 -392 0
391 -392 0
-391 392 0
395 -396 0
395 -397 0
396 397 -395 0
394 -395 0
-394 395 0
398 -399 0
398 -400 0
399 400 -398 0
397 -398 0
-397 398 0
401 -402 0
401 -403 0
402 403 -401 0
400 -401 0
-400 401 0
404 -405 0
404 -406 0
405 406 -404 0
403 -404 0
-403 404 0
407 -408 0
407 -409 0
408 409 -407 0
406 -407 0
-406 407 0
410 -411 0
410 -412 0
411 412 -410 0
409 -410 0
-409 410 0
-396 413 0
-399 413 0
-402 413 0
-405 413 0
-408 413 0
-411 413 0
413 -414 0
415 0
412 -413 0
-412 413 0
416 -417 0
416 -418 0
417 418 -416 0
419 -416 0
416 -419 0
420 -421 0
420 -422 0
421 422 -420 0
418 -420 0
-418 420 0
423 -424 0
423 -425 0
424 425 -423 0
422 -423 0
-422 423 0
-136 426 0
426 -427 0
136 427 -426 0
425 -426 0
-425 426 0
428 -429 0
428 -430 0
429 430 -428 0
431 -428 0
428 -431 0
432 -433 0
432 -434 0
433 434 -432 0
430 -432 0
-430 432 0
435 -436 0
435 -437 0
436 437 -435 0
434 -435 0
-434 435 0
438 -439 0
438 -440 0
439 440 -438 0
437 -438 0
-437 438 0
441 -442 0
441 -443 0
442 443 -441 0
440 -441 0
-440 441 0
444 -445 0
444 -446 0
445 446 -444 0
443 -444 0
-443 444 0
447 -448 0
447 -449 0
448 449 -447 0
446 -447 0
-446 447 0
450 -451 0
450 -452 0
451 452 -450 0
449 -450 0
-449 450 0
453 -454 0
453 -455 0
454 455 -453 0
452 -453 0
-452 453 0
456 -457 0
456 -458 0
457 458 -456 0
455 -456 0
-455 456 0
459 -460 0
459 -461 0
460 461 -459 0
458 -459 0
-458 459 0
462 -463 0
462 -464 0
463 464 -462 0
461 -462 0
-461 462 0
465 -466 0
465 -467 0
466 467 -465 0
464 -465 0
-464 465 0
-454 468 0
-457 468 0
-460 468 0
-463 468 0
-466 468 0
468 -469 0
470 0
467 -468 0
-467 468 0
471 -472 0
471 -473 0
472 473 -471 0
474 -471 0
471 -474 0
475 -476 0
475 -477 0
476 477 -475 0
473 -475 0
-473 475 0
478 -479 0
478 -480 0
479 480 -478 0
477 -478 0
-477 478 0
481 -482 0
481 -483 0
482 483 -481 0
480 -481 0
-480 481 0
-250 484 0
484 -485 0
250 485 -484 0
483 -484 0
-483 484 0
486 -487 0
486 -488 0
487 488 -486 0
489 -486 0
486 -489 0
490 -491 0
490 -492 0
491 492 -490 0
488 -490 0
-488 490 0
493 -494 0
493 -495 0
494 495 -493 0
492 -493 0
-492 493 0
496 -497 0
496 -498 0
497 498 -496 0
495 -496 0
-495 496 0
499 -500 0
499 -501 0
500 501 -499 0
498 -499 0
-498 499 0
502 -503 0
502 -504 0
503 504 -502 0
501 -502 0
-501 502 0
505 -506 0
505 -507 0
506 507 -505 0
504 -505 0
-504 505 0
508 -509 0
508 -510 0
509 510 -508 0
507 -508 0
-507 508 0
511 -512 0
511 -513 0
512 513 -511 0
510 -511 0
-510 511 0
514 -515 0
514 -516 0
515 516 -514 0
513 -514 0
-513 514 0
517 -518 0
517 -519 0
518 519 -517 0
516 -517 0
-516 517 0
-503 520 0
-506 520 0
-509 520 0
-512 520 0
-515 520 0
-518 520 0
520 -521 0
522 0
519 -520 0
-519 520 0
523 -524 0
523 -525 0
524 525 -523 0
526 -523 0
523 -526 0
527 -528 0
527 -529 0
528 529 -527 0
525 -527 0
-525 527 0
530 -531 0
530 -532 0
531 532 -530 0
529 -530 0
-529 530 0
533 -534 0
533 -535 0
534 535 -533 0
532 -533 0
-532 533 0
536 -537 0
536 -538 0
537 538 -536 0
535 -536 0
-535 536 0
539 -540 0
539 -541 0
540 541 -539 0
538 -539 0
-538 539 0
541 -542 0
542 -541 0
543 -544 0
543 -545 0
544 545 -543 0
546 -543 0
543 -546 0
547 -548 0
547 -549 0
548 549 -547 0
545 -547 0
-545 547 0
550 -551 0
550 -552 0
551 552 -550 0
549 -550 0
-549 550 0
553 -554 0
553 -555 0
554 555 -553 0
552 -553 0
-552 553 0
556 -557 0
556 -558 0
557 558 -556 0
555 -556 0
-555 556 0
559 -560 0
559 -561 0
560 561 -559 0
558 -559 0
-558 559 0
562 -563 0
562 -564 0
563 564 -562 0
561 -562 0
-561 562 0
565 -566 0
565 -567 0
566 567 -565 0
564 -565 0
-564 565 0
568 -569 0
568 -570 0
569 570 -568 0
567 -568 0
-567 568 0
571 -572 0
571 -573 0
572 573 -571 0
570 -571 0
-570 571 0
574 -575 0
574 -576 0
575 576 -574 0
573 -574 0
-573 574 0
577 -578 0
577 -579 0
578 579 -577 0
576 -577 0
-576 577 0
-566 580 0
-569 580 0
-572 580 0
-575 580 0
-578 580 0
580 -581 0
582 0
579 -580 0
-579 580 0
583 -584 0
583 -585 0
584 585 -583 0
586 -583 0
583 -586 0
587 -588 0
587 -589 0
588 589 -587 0
585 -587 0
-585 587 0
590 -591 0
590 -592 0
591 592 -590 0
589 -590 0
-589 590 0
593 -594 0
593 -595 0
594 595 -593 0
592 -593 0
-592 593 0
596 -597 0
596 -598 0
597 598 -596 0
595 -596 0
-595 596 0
599 -600 0
599 -601 0
600 601 -599 0
598 -599 0
-598 599 0
602 -603 0
602 -604 0
603 604 -602 0
601 -602 0
-601 602 0
605 -606 0
605 -607 0
606 607 -605 0
604 -605 0
-604 605 0
608 -609 0
608 -610 0
609 610 -608 0
607 -608 0
-607 608 0
611 -612 0
611 -613 0
612 613 -611 0
610 -611 0
-610 611 0
614 -615 0
614 -616 0
615 616 -614 0
613 -614 0
-613 614 0
617 -618 0
617 -619 0
618 619 -617 0
616 -617 0
-616 617 0
620 -621 0
620 -622 0
621 622 -620 0
619 -620 0
-619 620 0
623 -624 0
623 -625 0
624 625 -623 0
622 -623 0
-622 623 0
626 -627 0
626 -628 0
627 628 -626 0
625 -626 0
-625 626 0
-609 629 0
-612 629 0
-615 629 0
-618 629 0
-621 629 0
-624 629 0
-627 629 0
629 -630 0
631 0
628 -629 0
-628 629 0
632 -633 0
632 -634 0
633 634 -632 0
635 -632 0
632 -635 0
636 -637 0
636 -638 0
637 638 -636 0
634 -636 0
-634 636 0
639 -640 0
639 -641 0
640 641 -639 0
638 -639 0
-638 639 0
642 -643 0
642 -644 0
643 644 -642 0
641 -642 0
-641 642 0
645 -646 0
645 -647 0
646 647 -645 0
644 -645 0
-644 645 0
648 -649 0
648 -650 0
649 650 -648 0
647 -648 0
-647 648 0
651 -652 0
651 -653 0
652 653 -651 0
650 -651 0
-650 651 0
654 -655 0
654 -656 0
655 656 -654 0
653 -654 0
-653 654 0
657 -658 0
657 -659 0
658 659 -657 0
656 -657 0
-656 657 0
660 -661 0
660 -662 0
661 662 -660 0
659 -660 0
-659 660 0
663 -664 0
663 -665 0
664 665 -663 0
662 -663 0
-662 663 0
-649 666 0
-652 666 0
-655 666 0
-658 666 0
-661 666 0
-664 666 0
666 -667 0
668 0
665 -666 0
-665 666 0
669 -670 0
669 -671 0
670 671 -669 0
672 -669 0
669 -672 0
-53 673 0
673 -674 0
53 674 -673 0
671 -673 0
-671 673 0
675 -676 0
675 -677 0
676 677 -675 0
678 -675 0
675 -678 0
679 -680 0
679 -681 0
680 681 -679 0
677 -679 0
-677 679 0
682 -683 0
682 -684 0
683 684 -682 0
681 -682 0
-681 682 0
685 -686 0
685 -687 0
686 687 -685 0
684 -685 0
-684 685 0
688 -689 0
688 -690 0
689 690 -688 0
687 -688 0
-687 688 0
691 -692 0
691 -693 0
692 693 -691 0
690 -691 0
-690 691 0
694 -695 0
694 -696 0
695 696 -694 0
693 -694 0
-693 694 0
697 -698 0
697 -699 0
698 699 -697 0
696 -697 0
-696 697 0
700 -701 0
700 -702 0
701 702 -700 0
699 -700 0
-699 700 0
703 -704 0
703 -705 0
704 705 -703 0
702 -703 0
-702 703 0
706 -707 0
706 -708 0
707 708 -706 0
705 -706 0
-705 706 0
709 -710 0
709 -711 0
710 711 -709 0
708 -709 0
-708 709 0
712 -713 0
712 -714 0
713 714 -712 0
711 -712 0
-711 712 0
-695 715 0
-698 715 0
-701 715 0
-704 715 0
-707 715 0
-710 715 0
-713 715 0
715 -716 0
717 0
714 -715 0
-714 715 0
718 -719 0
718 -720 0
719 720 -718 0
721 -718 0
718 -721 0
722 -723 0
722 -724 0
723 724 -722 0
720 -722 0
-720 722 0
-290 725 0
725 -726 0
290 726 -725 0
724 -725 0
-724 725 0
727 -728 0
727 -729 0
728 729 -727 0
730 -727 0
727 -730 0
731 -732 0
731 -733 0
732 733 -731 0
729 -731 0
-729 731 0
734 -735 0
734 -736 0
735 736 -734 0
733 -734 0
-733 734 0
737 -738 0
737 -739 0
738 739 -737 0
736 -737 0
-736 737 0
740 -741 0
740 -742 0
741 742 -740 0
739 -740 0
-739 740 0
743 -744 0
743 -745 0
744 745 -743 0
742 -743 0
-742 743 0
746 -747 0
746 -748 0
747 748 -746 0
745 -746 0
-745 746 0
749 -750 0
749 -751 0
750 751 -749 0
748 -749 0
-748 749 0
752 -753 0
752 -754 0
753 754 -752 0
751 -752 0
-751 752 0
755 -756 0
755 -757 0
756 757 -755 0
754 -755 0
-754 755 0
-744 758 0
-747 758 0
-750 758 0
-753 758 0
-756 758 0
758 -759 0
760 0
757 -758 0
-757 758 0
761 -762 0
761 -763 0
762 763 -761 0
764 -761 0
761 -764 0
765 -766 0
765 -767 0
766 767 -765 0
763 -765 0
-763 765 0
768 -769 0
768 -770 0
769 770 -768 0
767 -768 0
-767 768 0
771 -772 0
771 -773 0
772 773 -771 0
770 -771 0
-770 771 0
774 -775 0
774 -776 0
775 776 -774 0
773 -774 0
-773 774 0
777 -778 0
777 -779 0
778 779 -777 0
776 -777 0
-776 777 0
780 -781 0
780 -782 0
781 782 -780 0
779 -780 0
-779 780 0
783 -784 0
783 -785 0
784 785 -783 0
782 -783 0
-782 783 0
786 -787 0
786 -788 0
787 788 -786 0
785 -786 0
-785 786 0
789 -790 0
789 -791 0
790 791 -789 0
788 -789 0
-788 789 0
792 -793 0
792 -794 0
793 794 -792 0
791 -792 0
-791 792 0
795 -796 0
795 -797 0
796 797 -795 0
794 -795 0
-794 795 0
798 -799 0
798 -800 0
799 800 -798 0
797 -798 0
-797 798 0
-781 801 0
-784 801 0
-787 801 0
-790 801 0
-793 801 0
-796 801 0
-799 801 0
801 -802 0
803 0
800 -801 0
-800 801 0
804 -805 0
804 -806 0
805 806 -804 0
807 -804 0
804 -807 0
808 -809 0
808 -810 0
809 810 -808 0
806 -808 0
-806 808 0
811 -812 0
811 -813 0
812 813 -811 0
810 -811 0
-810 811 0
814 -815 0
814 -816 0
815 816 -814 0
813 -814 0
-813 814 0
817 -818 0
817 -819 0
818 819 -817 0
816 -817 0
-816 817 0
820 -821 0
820 -822 0
821 822 -820 0
819 -820 0
-819 820 0
823 -824 0
823 -825 0
824 825 -823 0
822 -823 0
-822 823 0
826 -827 0
826 -828 0
827 828 -826 0
825 -826 0
-825 826 0
829 -830 0
829 -831 0
830 831 -829 0
828 -829 0
-828 829 0
832 -833 0
832 -834 0
833 834 -832 0
831 -832 0
-831 832 0
835 -836 0
835 -837 0
836 837 -835 0
834 -835 0
-834 835 0
-824 838 0
-827 838 0
-830 838 0
-833 838 0
-836 838 0
838 -839 0
840 0
837 -838 0
-837 838 0
841 -842 0
841 -843 0
842 843 -841 0
844 -841 0
841 -844 0
845 -846 0
845 -847 0
846 847 -845 0
843 -845 0
-843 845 0
848 -849 0
848 -850 0
849 850 -848 0
847 -848 0
-847 848 0
851 -852 0
851 -853 0
852 853 -851 0
850 -851 0
-850 851 0
854 -855 0
854 -856 0
855 856 -854 0
853 -854 0
-853 854 0
857 -858 0
857 -859 0
858 859 -857 0
856 -857 0
-856 857 0
-831 860 0
860 -861 0
831 861 -860 0
859 -860 0
-859 860 0
862 -863 0
862 -864 0
863 864 -862 0
865 -862 0
862 -865 0
866 -867 0
866 -868 0
867 868 -866 0
864 -866 0
-864 866 0
869 -870 0
869 -871 0
870 871 -869 0
868 -869 0
-868 869 0
872 -873 0
872 -874 0
873 874 -872 0
871 -872 0
-871 872 0
875 -876 0
875 -877 0
876 877 -875 0
874 -875 0
-874 875 0
878 -879 0
878 -880 0
879 880 -878 0
877 -878 0
-877 878 0
881 -882 0
881 -883 0
882 883 -881 0
880 -881 0
-880 881 0
884 -885 0
884 -886 0
885 886 -884 0
883 -884 0
-883 884 0
887 -888 0
887 -889 0
888 889 -887 0
886 -887 0
-886 887 0
890 -891 0
890 -892 0
891 892 -890 0
889 -890 0
-889 890 0
893 -894 0
893 -895 0
894 895 -893 0
892 -893 0
-892 893 0
896 -897 0
896 -898 0
897 898 -896 0
895 -896 0
-895 896 0
-882 899 0
-885 899 0
-888 899 0
-891 899 0
-894 899 0
-897 899 0
899 -900 0
901 0
898 -899 0
-898 899 0
902 -903 0
902 -904 0
903 904 -902 0
905 -902 0
902 -905 0
906 -907 0
906 -908 0
907 908 -906 0
904 -906 0
-904 906 0
909 -910 0
909 -911 0
910 911 -909 0
908 -909 0
-908 909 0
912 -913 0
912 -914 0
913 914 -912 0
911 -912 0
-911 912 0
915 -916 0
915 -917 0
916 917 -915 0
914 -915 0
-914 915 0
918 -919 0
918 -920 0
919 920 -918 0
917 -918 0
-917 918 0
921 -922 0
921 -923 0
922 923 -921 0
920 -921 0
-920 921 0
924 -925 0
924 -926 0
925 926 -924 0
923 -924 0
-923 924 0
927 -928 0
927 -929 0
928 929 -927 0
926 -927 0
-926 927 0
930 -931 0
930 -932 0
931 932 -930 0
929 -930 0
-929 930 0
933 -934 0
933 -935 0
934 935 -933 0
932 -933 0
-932 933 0
936 -937 0
936 -938 0
937 938 -936 0
935 -936 0
-935 936 0
939 -940 0
939 -941 0
940 941 -939 0
938 -939 0
-938 939 0
-925 942 0
-928 942 0
-931 942 0
-934 942 0
-937 942 0
-940 942 0
942 -943 0
944 0
941 -942 0
-941 942 0
945 -946 0
945 -947 0
946 947 -945 0
948 -945 0
945 -948 0
949 -950 0
949 -951 0
950 951 -949 0
947 -949 0
-947 949 0
952 -953 0
952 -954 0
953 954 -952 0
951 -952 0
-951 952 0
955 -956 0
955 -957 0
956 957 -955 0
954 -955 0
-954 955 0
958 -959 0
958 -960 0
959 960 -958 0
957 -958 0
-957 958 0
961 -962 0
961 -963 0
962 963 -961 0
960 -961 0
-960 961 0
964 -965 0
964 -966 0
965 966 -964 0
963 -964 0
-963 964 0
967 -968 0
967 -969 0
968 969 -967 0
966 -967 0
-966 967 0
970 -971 0
970 -972 0
971 972 -970 0
969 -970 0
-969 970 0
973 -974 0
973 -975 0
974 975 -973 0
972 -973 0
-972 973 0
976 -977 0
976 -978 0
977 978 -976 0
975 -976 0
-975 976 0
979 -980 0
979 -981 0
980 981 -979 0
978 -979 0
-978 979 0
982 -983 0
982 -984 0
983 984 -982 0
981 -982 0
-981 982 0
-965 985 0
-968 985 0
-971 985 0
-974 985 0
-977 985 0
-980 985 0
-983 985 0
985 -986 0
987 0
984 -985 0
-984 985 0
988 -989 0
988 -990 0
989 990 -988 0
991 -988 0
988 -991 0
992 -993 0
992 -994 0
993 994 -992 0
990 -992 0
-990 992 0
995 -996 0
995 -997 0
996 997 -995 0
994 -995 0
-994 995 0
998 -999 0
998 -1000 0
999 1000 -998 0
997 -998 0
-997 998 0
1001 -1002 0
1001 -1003 0
1002 1003 -1001 0
1000 -1001 0
-1000 1001 0
1004 -1005 0
1004 -1006 0
1005 1006 -1004 0
1003 -1004 0
-1003 1004 0
1007 -1008 0
1007 -1009 0
1008 1009 -1007 0
1006 -1007 0
-1006 1007 0
1010 -1011 0
1010 -1012 0
1011 1012 -1010 0
1009 -1010 0
-1009 1010 0
1013 -1014 0
1013 -1015 0
1014 1015 -1013 0
1012 -1013 0
-1012 1013 0
1016 -1017 0
1016 -1018 0
1017 1018 -1016 0
1015 -1016 0
-1015 1016 0
1019 -1020 0
1019 -1021 0
1020 1021 -1019 0
1018 -1019 0
-1018 1019 0
1022 -1023 0
1022 -1024 0
1023 1024 -1022 0
1021 -1022 0
-1021 1022 0
1025 -1026 0
1025 -1027 0
1026 1027 -1025 0
1024 -1025 0
-1024 1025 0
1028 -1029 0
1028 -1030 0
1029 1030 -1028 0
1027 -1028 0
-1027 1028 0
1031 -1032 0
1031 -1033 0
1032 1033 -1031 0
1030 -1031 0
-1030 1031 0
-1014 1034 0
-1017 1034 0
-1020 1034 0
-1023 1034 0
-1026 1034 0
-1029 1034 0
-1032 1034 0
1034 -1035 0
1036 0
1033 -1034 0
-1033 1034 0
1037 -1038 0
1037 -1039 0
1038 1039 -1037 0
1040 -1037 0
1037 -1040 0
1041 -1042 0
1041 -1043 0
1042 1043 -1041 0
1039 -1041 0
-1039 1041 0
1044 -1045 0
1044 -1046 0
1045 1046 -1044 0
1043 -1044 0
-1043 1044 0
1047 -1048 0
1047 -1049 0
1048 1049 -1047 0
1046 -1047 0
-1046 1047 0
1050 -1051 0
1050 -1052 0
1051 1052 -1050 0
1049 -1050 0
-1049 1050 0
-519 1053 0
1053 -1054 0
519 1054 -1053 0
1052 -1053 0
-1052 1053 0
1055 -1056 0
1055 -1057 0
1056 1057 -1055 0
1058 -1055 0
1055 -1058 0
1059 -1060 0
1059 -1061 0
1060 1061 -1059 0
1057 -1059 0
-1057 1059 0
1062 -1063 0
1062 -1064 0
1063 1064 -1062 0
1061 -1062 0
-1061 1062 0
1065 -1066 0
1065 -1067 0
1066 1067 -1065 0
1064 -1065 0
-1064 1065 0
1068 -1069 0
1068 -1070 0
1069 1070 -1068 0
1067 -1068 0
-1067 1068 0
1071 -1072 0
1071 -1073 0
1072 1073 -1071 0
1070 -1071 0
-1070 1071 0
1074 -1075 0
1074 -1076 0
1075 1076 -1074 0
1073 -1074 0
-1073 1074 0
1077 -1078 0
1077 -1079 0
1078 1079 -1077 0
1076 -1077 0
-1076 1077 0
1080 -1081 0
1080 -1082 0
1081 1082 -1080 0
1079 -1080 0
-1079 1080 0
1083 -1084 0
1083 -1085 0
1084 1085 -1083 0
1082 -1083 0
-1082 1083 0
1086 -1087 0
1086 -1088 0
1087 1088 -1086 0
1085 -1086 0
-1085 1086 0
1089 -1090 0
1089 -1091 0
1090 1091 -1089 0
1088 -1089 0
-1088 1089 0
1092 -1093 0
1092 -1094 0
1093 1094 -1092 0
1091 -1092 0
-1091 1092 0
-1075 1095 0
-1078 1095 0
-1081 1095 0
-1084 1095 0
-1087 1095 0
-1090 1095 0
-1093 1095 0
1095 -1096 0
1097 0
1094 -1095 0
-1094 1095 0
1098 -1099 0
1098 -1100 0
1099 1100 -1098 0
1101 -1098 0
1098 -1101 0
1102 -1103 0
1102 -1104 0
1103 1104 -1102 0
1100 -1102 0
-1100 1102 0
1105 -1106 0
1105 -1107 0
1106 1107 -1105 0
1104 -1105 0
-1104 1105 0
1108 -1109 0
1108 -1110 0
1109 1110 -1108 0
1107 -1108 0
-1107 1108 0
1111 -1112 0
1111 -1113 0
1112 1113 -1111 0
1110 -1111 0
-1110 1111 0
1114 -1115 0
1114 -1116 0
1115 1116 -1114 0
1113 -1114 0
-1113 1114 0
1117 -1118 0
1117 -1119 0
1118 1119 -1117 0
1116 -1117 0
-1116 1117 0
1120 -1121 0
1120 -1122 0
1121 1122 -1120 0
1119 -1120 0
-1119 1120 0
1123 -1124 0
1123 -1125 0
1124 1125 -1123 0
1122 -1123 0
-1122 1123 0
1126 -1127 0
1126 -1128 0
1127 1128 -1126 0
1125 -1126 0
-1125 1126 0
1129 -1130 0
1129 -1131 0
1130 1131 -1129 0
1128 -1129 0
-1128 1129 0
1132 -1133 0
1132 -1134 0
1133 1134 -1132 0
1131 -1132 0
-1131 1132 0
1135 -1136 0
1135 -1137 0
1136 1137 -1135 0
1134 -1135 0
-1134 1135 0
1138 -1139 0
1138 -1140 0
1139 1140 -1138 0
1137 -1138 0
-1137 1138 0
1141 -1142 0
1141 -1143 0
1142 1143 -1141 0
1140 -1141 0
-1140 1141 0
-1124 1144 0
-1127 1144 0
-1130 1144 0
-1133 1144 0
-1136 1144 0
-1139 1144 0
-1142 1144 0
1144 -1145 0
1146 0
1143 -1144 0
-1143 1144 0
1147 -1148 0
1147 -1149 0
1148 1149 -1147 0
1150 -1147 0
1147 -1150 0
1151 -1152 0
1151 -1153 0
1152 1153 -1151 0
1149 -1151 0
-1149 1151 0
1154 -1155 0
1154 -1156 0
1155 1156 -1154 0
1153 -1154 0
-1153 1154 0
1157 -1158 0
1157 -1159 0
1158 1159 -1157 0
1156 -1157 0
-1156 1157 0
1160 -1161 0
1160 -1162 0
1161 1162 -1160 0
1159 -1160 0
-1159 1160 0
-253 1163 0
1163 -1164 0
253 1164 -1163 0
1162 -1163 0
-1162 1163 0
1165 -1166 0
1165 -1167 0
1166 1167 -1165 0
1168 -1165 0
1165 -1168 0
1169 -1170 0
1169 -1171 0
1170 1171 -1169 0
1167 -1169 0
-1167 1169 0
1172 -1173 0
1172 -1174 0
1173 1174 -1172 0
1171 -1172 0
-1171 1172 0
1175 -1176 0
1175 -1177 0
1176 1177 -1175 0
1174 -1175 0
-1174 1175 0
1178 -1179 0
1178 -1180 0
1179 1180 -1178 0
1177 -1178 0
-1177 1178 0
-573 1181 0
1181 -1182 0
573 1182 -1181 0
1180 -1181 0
-1180 1181 0
1183 -1184 0
1183 -1185 0
1184 1185 -1183 0
1186 -1183 0
1183 -1186 0
1187 -1188 0
1187 -1189 0
1188 1189 -1187 0
1185 -1187 0
-1185 1187 0
1190 -1191 0
1190 -1192 0
1191 1192 -1190 0
1189 -1190 0
-1189 1190 0
1193 -1194 0
1193 -1195 0
1194 1195 -1193 0
1192 -1193 0
-1192 1193 0
1196 -1197 0
1196 -1198 0
1197 1198 -1196 0
1195 -1196 0
-1195 1196 0
1199 -1200 0
1199 -1201 0
1200 1201 -1199 0
1198 -1199 0
-1198 1199 0
1202 -1203 0
1202 -1204 0
1203 1204 -1202 0
1201 -1202 0
-1201 1202 0
1205 -1206 0
1205 -1207 0
1206 1207 -1205 0
1204 -1205 0
-1204 1205 0
1208 -1209 0
1208 -1210 0
1209 1210 -1208 0
1207 -1208 0
-1207 1208 0
1211 -1212 0
1211 -1213 0
1212 1213 -1211 0
1210 -1211 0
-1210 1211 0
1214 -1215 0
1214 -1216 0
1215 1216 -1214 0
1213 -1214 0
-1213 1214 0
-1197 1217 0
-1200 1217 0
-1203 1217 0
-1206 1217 0
-1209 1217 0
-1212 1217 0
-1215 1217 0
1217 -1218 0
1219 0
1216 -1217 0
-1216 1217 0
1220 -1221 0
1220 -1222 0
1221 1222 -1220 0
1223 -1220 0
1220 -1223 0
1224 -1225 0
1224 -1226 0
1225 1226 -1224 0
1222 -1224 0
-1222 1224 0
1227 -1228 0
1227 -1229 0
1228 1229 -1227 0
1226 -1227 0
-1226 1227 0
1230 -1231 0
1230 -1232 0
1231 1232 -1230 0
1229 -1230 0
-1229 1230 0
1233 -1234 0
1233 -1235 0
1234 1235 -1233 0
1232 -1233 0
-1232 1233 0
1236 -1237 0
1236 -1238 0
1237 1238 -1236 0
1235 -1236 0
-1235 1236 0
-1140 1239 0
1239 -1240 0
1140 1240 -1239 0
1238 -1239 0
-1238 1239 0
1241 -1242 0
1241 -1243 0
1242 1243 -1241 0
1244 -1241 0
1241 -1244 0
1245 -1246 0
1245 -1247 0
1246 1247 -1245 0
1243 -1245 0
-1243 1245 0
1248 -1249 0
1248 -1250 0
1249 1250 -1248 0
1247 -1248 0
-1247 1248 0
1251 -1252 0
1251 -1253 0
1252 1253 -1251 0
1250 -1251 0
-1250 1251 0
1254 -1255 0
1254 -1256 0
1255 1256 -1254 0
1253 -1254 0
-1253 1254 0
1257 -1258 0
1257 -1259 0
1258 1259 -1257 0
1256 -1257 0
-1256 1257 0
1260 -1261 0
1260 -1262 0
1261 1262 -1260 0
1259 -1260 0
-1259 1260 0
1263 -1264 0
1263 -1265 0
1264 1265 -1263 0
1262 -1263 0
-1262 1263 0
1266 -1267 0
1266 -1268 0
1267 1268 -1266 0
1265 -1266 0
-1265 1266 0
1269 -1270 0
1269 -1271 0
1270 1271 -1269 0
1268 -1269 0
-1268 1269 0
1272 -1273 0
1272 -1274 0
1273 1274 -1272 0
1271 -1272 0
-1271 1272 0
1275 -1276 0
1275 -1277 0
1276 1277 -1275 0
1274 -1275 0
-1274 1275 0
1278 -1279 0
1278 -1280 0
1279 1280 -1278 0
1277 -1278 0
-1277 1278 0
1281 -1282 0
1281 -1283 0
1282 1283 -1281 0
1280 -1281 0
-1280 1281 0
1284 -1285 0
1284 -1286 0
1285 1286 -1284 0
1283 -1284 0
-1283 1284 0
-1267 1287 0
-1270 1287 0
-1273 1287 0
-1276 1287 0
-1279 1287 0
-1282 1287 0
-1285 1287 0
1287 -1288 0
1289 0
1286 -1287 0
-1286 1287 0
1290 -1291 0
1290 -1292 0
1291 1292 -1290 0
1293 -1290 0
1290 -1293 0
1294 -1295 0
1294 -1296 0
1295 1296 -1294 0
1292 -1294 0
-1292 1294 0
1297 -1298 0
1297 -1299 0
1298 1299 -1297 0
1296 -1297 0
-1296 1297 0
1300 -1301 0
1300 -1302 0
1301 1302 -1300 0
1299 -1300 0
-1299 1300 0
1303 -1304 0
1303 -1305 0
1304 1305 -1303 0
1302 -1303 0
-1302 1303 0
-938 1306 0
1306 -1307 0
938 1307 -1306 0
1305 -1306 0
-1305 1306 0
1308 -1309 0
1308 -1310 0
1309 1310 -1308 0
1311 -1308 0
1308 -1311 0
1312 -1313 0
1312 -1314 0
1313 1314 -1312 0
1310 -1312 0
-1310 1312 0
1315 -1316 0
1315 -1317 0
1316 1317 -1315 0
1314 -1315 0
-1314 1315 0
1318 -1319 0
1318 -1320 0
1319 1320 -1318 0
1317 -1318 0
-1317 1318 0
1321 -1322 0
1321 -1323 0
1322 1323 -1321 0
1320 -1321 0
-1320 1321 0
1324 -1325 0
1324 -1326 0
1325 1326 -1324 0
1323 -1324 0
-1323 1324 0
1327 -1328 0
1327 -1329 0
1328 1329 -1327 0
1326 -1327 0
-1326 1327 0
-40 1330 0
1330 -1331 0
40 1331 -1330 0
1329 -1330 0
-1329 1330 0
1332 -1333 0
1332 -1334 0
1333 1334 -1332 0
1335 -1332 0
1332 -1335 0
1336 -1337 0
1336 -1338 0
1337 1338 -1336 0
1334 -1336 0
-1334 1336 0
1339 -1340 0
1339 -1341 0
1340 1341 -1339 0
1338 -1339 0
-1338 1339 0
1342 -1343 0
1342 -1344 0
1343 1344 -1342 0
1341 -1342 0
-1341 1342 0
1345 -1346 0
1345 -1347 0
1346 1347 -1345 0
1344 -1345 0
-1344 1345 0
1348 -1349 0
1348 -1350 0
1349 1350 -1348 0
1347 -1348 0
-1347 1348 0
1351 -1352 0
1351 -1353 0
1352 1353 -1351 0
1350 -1351 0
-1350 1351 0
1354 -1355 0
1354 -1356 0
1355 1356 -1354 0
1353 -1354 0
-1353 1354 0
1357 -1358 0
1357 -1359 0
1358 1359 -1357 0
1356 -1357 0
-1356 1357 0
1360 -1361 0
1360 -1362 0
1361 1362 -1360 0
1359 -1360 0
-1359 1360 0
1363 -1364 0
1363 -1365 0
1364 1365 -1363 0
1362 -1363 0
-1362 1363 0
-1352 1366 0
-1355 1366 0
-1358 1366 0
-1361 1366 0
-1364 1366 0
1366 -1367 0
1368 0
1365 -1366 0
-1365 1366 0
1369 -1370 0
1369 -1371 0
1370 1371 -1369 0
1372 -1369 0
1369 -1372 0
1373 -1374 0
1373 -1375 0
1374 1375 -1373 0
1371 -1373 0
-1371 1373 0
1376 -1377 0
1376 -1378 0
1377 1378 -1376 0
1375 -1376 0
-1375 1376 0
1379 -1380 0
1379 -1381 0
1380 1381 -1379 0
1378 -1379 0
-1378 1379 0
-834 1382 0
1382 -1383 0
834 1383 -1382 0
1381 -1382 0
-1381 1382 0
1384 -1385 0
1384 -1386 0
1385 1386 -1384 0
1387 -1384 0
1384 -1387 0
1388 -1389 0
1388 -1390 0
1389 1390 -1388 0
1386 -1388 0
-1386 1388 0
1391 -1392 0
1391 -1393 0
1392 1393 -1391 0
1390 -1391 0
-1390 1391 0
1394 -1395 0
1394 -1396 0
1395 1396 -1394 0
1393 -1394 0
-1393 1394 0
1397 -1398 0
1397 -1399 0
1398 1399 -1397 0
1396 -1397 0
-1396 1397 0
1400 -1401 0
1400 -1402 0
1401 1402 -1400 0
1399 -1400 0
-1399 1400 0
1403 -1404 0
1403 -1405 0
1404 1405 -1403 0
1402 -1403 0
-1402 1403 0
1406 -1407 0
1406 -1408 0
1407 1408 -1406 0
1405 -1406 0
-1405 1406 0
1409 -1410 0
1409 -1411 0
1410 1411 -1409 0
1408 -1409 0
-1408 1409 0
1412 -1413 0
1412 -1414 0
1413 1414 -1412 0
1411 -1412 0
-1411 1412 0
1415 -1416 0
1415 -1417 0
1416 1417 -1415 0
1414 -1415 0
-1414 1415 0
1418 -1419 0
1418 -1420 0
1419 1420 -1418 0
1417 -1418 0
-1417 1418 0
1421 -1422 0
1421 -1423 0
1422 1423 -1421 0
1420 -1421 0
-1420 1421 0
1424 -1425 0
1424 -1426 0
1425 1426 -1424 0
1423 -1424 0
-1423 1424 0
-1407 1427 0
-1410 1427 0
-1413 1427 0
-1416 1427 0
-1419 1427 0
-1422 1427 0
-1425 1427 0
1427 -1428 0
1429 0
1426 -1427 0
-1426 1427 0
1430 -1431 0
1430 -1432 0
1431 1432 -1430 0
1433 -1430 0
1430 -1433 0
1434 -1435 0
1434 -1436 0
1435 1436 -1434 0
1432 -1434 0
-1432 1434 0
1437 -1438 0
1437 -1439 0
1438 1439 -1437 0
1436 -1437 0
-1436 1437 0
1440 -1441 0
1440 -1442 0
1441 1442 -1440 0
1439 -1440 0
-1439 1440 0
1443 -1444 0
1443 -1445 0
1444 1445 -1443 0
1442 -1443 0
-1442 1443 0
1446 -1447 0
1446 -1448 0
1447 1448 -1446 0
1445 -1446 0
-1445 1446 0
1449 -1450 0
1449 -1451 0
1450 1451 -1449 0
1448 -1449 0
-1448 1449 0
1452 -1453 0
1452 -1454 0
1453 1454 -1452 0
1451 -1452 0
-1451 1452 0
1455 -1456 0
1455 -1457 0
1456 1457 -1455 0
1454 -1455 0
-1454 1455 0
1458 -1459 0
1458 -1460 0
1459 1460 -1458 0
1457 -1458 0
-1457 1458 0
-1441 1461 0
-1444 1461 0
-1447 1461 0
-1450 1461 0
-1453 1461 0
-1456 1461 0
-1459 1461 0
1461 -1462 0
1463 0
1460 -1461 0
-1460 1461 0
1464 -1465 0
1464 -1466 0
1465 1466 -1464 0
1467 -1464 0
1464 -1467 0
1468 -1469 0
1468 -1470 0
1469 1470 -1468 0
1466 -1468 0
-1466 1468 0
1471 -1472 0
1471 -1473 0
1472 1473 -1471 0
1470 -1471 0
-1470 1471 0
-210 1474 0
1474 -1475 0
210 1475 -1474 0
1473 -1474 0
-1473 1474 0
1476 -1477 0
1476 -1478 0
1477 1478 -1476 0
1479 -1476 0
1476 -1479 0
1480 -1481 0
1480 -1482 0
1481 1482 -1480 0
1478 -1480 0
-1478 1480 0
1483 -1484 0
1483 -1485 0
1484 1485 -1483 0
1482 -1483 0
-1482 1483 0
1486 -1487 0
1486 -1488 0
1487 1488 -1486 0
1485 -1486 0
-1485 1486 0
1489 -1490 0
1489 -1491 0
1490 1491 -1489 0
1488 -1489 0
-1488 1489 0
-828 1492 0
1492 -1493 0
828 1493 -1492 0
1491 -1492 0
-1491 1492 0
1494 -1495 0
1494 -1496 0
1495 1496 -1494 0
1497 -1494 0
1494 -1497 0
1498 -1499 0
1498 -1500 0
1499 1500 -1498 0
1496 -1498 0
-1496 1498 0
1501 -1502 0
1501 -1503 0
1502 1503 -1501 0
1500 -1501 0
-1500 1501 0
1504 -1505 0
1504 -1506 0
1505 1506 -1504 0
1503 -1504 0
-1503 1504 0
1507 -1508 0
1507 -1509 0
1508 1509 -1507 0
1506 -1507 0
-1506 1507 0
1510 -1511 0
1510 -1512 0
1511 1512 -1510 0
1509 -1510 0
-1509 1510 0
1513 -1514 0
1513 -1515 0
1514 1515 -1513 0
1512 -1513 0
-1512 1513 0
1516 -1517 0
1516 -1518 0
1517 1518 -1516 0
1515 -1516 0
-1515 1516 0
1519 -1520 0
1519 -1521 0
1520 1521 -1519 0
1518 -1519 0
-1518 1519 0
1522 -1523 0
1522 -1524 0
1523 1524 -1522 0
1521 -1522 0
-1521 1522 0
1525 -1526 0
1525 -1527 0
1526 1527 -1525 0
1524 -1525 0
-1524 1525 0
1528 -1529 0
1528 -1530 0
1529 1530 -1528 0
1527 -1528 0
-1527 1528 0
1531 -1532 0
1531 -1533 0
1532 1533 -1531 0
1530 -1531 0
-1530 1531 0
1534 -1535 0
1534 -1536 0
1535 1536 -1534 0
1533 -1534 0
-1533 1534 0
1537 -1538 0
1537 -1539 0
1538 1539 -1537 0
1536 -1537 0
-1536 1537 0
-1520 1540 0
-1523 1540 0
-1526 1540 0
-1529 1540 0
-1532 1540 0
-1535 1540 0
-1538 1540 0
1540 -1541 0
1542 0
1539 -1540 0
-1539 1540 0
1543 -1544 0
1543 -1545 0
1544 1545 -1543 0
1546 -1543 0
1543 -1546 0
1547 -1548 0
1547 -1549 0
1548 1549 -1547 0
1545 -1547 0
-1545 1547 0
1550 -1551 0
1550 -1552 0
1551 1552 -1550 0
1549 -1550 0
-1549 1550 0
1553 -1554 0
1553 -1555 0
1554 1555 -1553 0
1552 -1553 0
-1552 1553 0
1556 -1557 0
1556 -1558 0
1557 1558 -1556 0
1555 -1556 0
-1555 1556 0
-877 1559 0
1559 -1560 0
877 1560 -1559 0
1558 -1559 0
-1558 1559 0
1561 -1562 0
1561 -1563 0
1562 1563 -1561 0
1564 -1561 0
1561 -1564 0
1565 -1566 0
1565 -1567 0
1566 1567 -1565 0
1563 -1565 0
-1563 1565 0
1568 -1569 0
1568 -1570 0
1569 1570 -1568 0
1567 -1568 0
-1567 1568 0
1571 -1572 0
1571 -1573 0
1572 1573 -1571 0
1570 -1571 0
-1570 1571 0
-671 1574 0
1574 -1575 0
671 1575 -1574 0
1573 -1574 0
-1573 1574 0
1576 -1577 0
1577 -1576 0
4 0
47 0
78 0
115 0
158 0
192 0
226 0
272 0
284 0
327 0
364 0
379 0
419 0
431 0
474 0
489 0
526 0
546 0
586 0
635 0
672 0
678 0
721 0
730 0
764 0
807 0
844 0
865 0
905 0
948 0
991 0
1040 0
1058 0
1101 0
1150 0
1168 0
1186 0
1223 0
1244 0
1293 0
1311 0
1335 0
1372 0
1387 0
1433 0
1467 0
1479 0
1497 0
1546 0
1564 0
-1576 0
